* ENCODING=ISO-8859-1
NAME          IloCplex
ROWS
 N  obj1    
 L  c1      
 E  c2      
 E  c3      
 E  c4      
 E  c5      
 E  c6      
 E  c7      
 E  c8      
 E  c9      
 E  c10     
 E  c11     
 E  c12     
 E  c13     
 E  c14     
 E  c15     
 E  c16     
 E  c17     
 E  c18     
 E  c19     
 E  c20     
 E  c21     
 L  c22     
 L  c23     
 L  c24     
 L  c25     
 L  c26     
 L  c27     
 L  c28     
 L  c29     
 L  c30     
 L  c31     
 L  c32     
 L  c33     
 L  c34     
 L  c35     
 L  c36     
 L  c37     
 L  c38     
 L  c39     
 L  c40     
 L  c41     
 L  c42     
 L  c43     
 L  c44     
 L  c45     
 L  c46     
 L  c47     
 L  c48     
 L  c49     
 L  c50     
 L  c51     
 L  c52     
 L  c53     
 L  c54     
 L  c55     
 L  c56     
 L  c57     
 L  c58     
 L  c59     
 L  c60     
 L  c61     
 L  c62     
 L  c63     
 L  c64     
 L  c65     
 L  c66     
 L  c67     
 L  c68     
 L  c69     
 L  c70     
 L  c71     
 L  c72     
 L  c73     
 L  c74     
 L  c75     
 L  c76     
 L  c77     
 L  c78     
 L  c79     
 L  c80     
 L  c81     
 L  c82     
 L  c83     
 L  c84     
 L  c85     
 L  c86     
 L  c87     
 L  c88     
 L  c89     
 L  c90     
 L  c91     
 L  c92     
 L  c93     
 L  c94     
 L  c95     
COLUMNS
    MARK0000  'MARKER'                 'INTORG'
    y_a_65    c1                              1
    y_a_65    c18                            -1
    y_a_65    c20                             1
    y_a_65    c87                             1
    y_a_66    c1                              1
    y_a_66    c3                             -1
    y_a_66    c20                             1
    y_a_66    c88                             1
    y_a_67    c1                              1
    y_a_67    c2                             -1
    y_a_67    c20                             1
    y_a_67    c89                             1
    y_a_68    c1                              1
    y_a_68    c90                             1
    y_a_0     c2                              1
    y_a_0     c3                             -1
    y_a_0     c22                             1
    y_a_1     c2                              1
    y_a_1     c4                             -1
    y_a_1     c23                             1
    y_a_2     c2                              1
    y_a_2     c5                             -1
    y_a_2     c24                             1
    y_a_3     c2                              1
    y_a_3     c6                             -1
    y_a_3     c25                             1
    y_a_4     c2                              1
    y_a_4     c9                             -1
    y_a_4     c26                             1
    y_a_5     c2                              1
    y_a_5     c10                            -1
    y_a_5     c27                             1
    y_a_6     c2                              1
    y_a_6     c17                            -1
    y_a_6     c28                             1
    y_a_7     c2                              1
    y_a_7     c19                            -1
    y_a_7     c29                             1
    y_a_8     c3                              1
    y_a_8     c4                             -1
    y_a_8     c30                             1
    y_a_9     c3                              1
    y_a_9     c5                             -1
    y_a_9     c31                             1
    y_a_10    c3                              1
    y_a_10    c6                             -1
    y_a_10    c32                             1
    y_a_11    c3                              1
    y_a_11    c7                             -1
    y_a_11    c33                             1
    y_a_12    c3                              1
    y_a_12    c8                             -1
    y_a_12    c34                             1
    y_a_13    c3                              1
    y_a_13    c10                            -1
    y_a_13    c35                             1
    y_a_14    c3                              1
    y_a_14    c11                            -1
    y_a_14    c36                             1
    y_a_15    c3                              1
    y_a_15    c13                            -1
    y_a_15    c37                             1
    y_a_16    c4                              1
    y_a_16    c10                            -1
    y_a_16    c38                             1
    y_a_17    c4                              1
    y_a_17    c13                            -1
    y_a_17    c39                             1
    y_a_18    c4                              1
    y_a_18    c15                            -1
    y_a_18    c40                             1
    y_a_19    c4                              1
    y_a_19    c16                            -1
    y_a_19    c41                             1
    y_a_20    c4                              1
    y_a_20    c17                            -1
    y_a_20    c42                             1
    y_a_21    c5                              1
    y_a_21    c8                             -1
    y_a_21    c43                             1
    y_a_22    c5                              1
    y_a_22    c10                            -1
    y_a_22    c44                             1
    y_a_23    c5                              1
    y_a_23    c12                            -1
    y_a_23    c45                             1
    y_a_24    c5                              1
    y_a_24    c13                            -1
    y_a_24    c46                             1
    y_a_25    c5                              1
    y_a_25    c14                            -1
    y_a_25    c47                             1
    y_a_26    c5                              1
    y_a_26    c17                            -1
    y_a_26    c48                             1
    y_a_27    c5                              1
    y_a_27    c18                            -1
    y_a_27    c49                             1
    y_a_28    c6                              1
    y_a_28    c7                             -1
    y_a_28    c50                             1
    y_a_29    c6                              1
    y_a_29    c8                             -1
    y_a_29    c51                             1
    y_a_30    c6                              1
    y_a_30    c9                             -1
    y_a_30    c52                             1
    y_a_31    c6                              1
    y_a_31    c11                            -1
    y_a_31    c53                             1
    y_a_32    c6                              1
    y_a_32    c12                            -1
    y_a_32    c54                             1
    y_a_33    c6                              1
    y_a_33    c14                            -1
    y_a_33    c55                             1
    y_a_34    c6                              1
    y_a_34    c16                            -1
    y_a_34    c56                             1
    y_a_35    c6                              1
    y_a_35    c18                            -1
    y_a_35    c57                             1
    y_a_36    c7                              1
    y_a_36    c11                            -1
    y_a_36    c58                             1
    y_a_37    c7                              1
    y_a_37    c17                            -1
    y_a_37    c59                             1
    y_a_38    c7                              1
    y_a_38    c18                            -1
    y_a_38    c60                             1
    y_a_39    c7                              1
    y_a_39    c19                            -1
    y_a_39    c61                             1
    y_a_69    c7                              1
    y_a_69    c21                            -1
    y_a_69    c91                             1
    y_a_70    c7                              1
    y_a_70    c21                            -1
    y_a_70    c92                             1
    y_a_40    c8                              1
    y_a_40    c9                             -1
    y_a_40    c62                             1
    y_a_41    c8                              1
    y_a_41    c10                            -1
    y_a_41    c63                             1
    y_a_42    c8                              1
    y_a_42    c15                            -1
    y_a_42    c64                             1
    y_a_43    c9                              1
    y_a_43    c10                            -1
    y_a_43    c65                             1
    y_a_44    c9                              1
    y_a_44    c11                            -1
    y_a_44    c66                             1
    y_a_45    c9                              1
    y_a_45    c13                            -1
    y_a_45    c67                             1
    y_a_46    c9                              1
    y_a_46    c14                            -1
    y_a_46    c68                             1
    y_a_47    c10                             1
    y_a_47    c13                            -1
    y_a_47    c69                             1
    y_a_48    c10                             1
    y_a_48    c14                            -1
    y_a_48    c70                             1
    y_a_49    c10                             1
    y_a_49    c16                            -1
    y_a_49    c71                             1
    y_a_50    c10                             1
    y_a_50    c17                            -1
    y_a_50    c72                             1
    y_a_51    c10                             1
    y_a_51    c18                            -1
    y_a_51    c73                             1
    y_a_52    c11                             1
    y_a_52    c14                            -1
    y_a_52    c74                             1
    y_a_53    c11                             1
    y_a_53    c19                            -1
    y_a_53    c75                             1
    y_a_54    c12                             1
    y_a_54    c17                            -1
    y_a_54    c76                             1
    y_a_55    c12                             1
    y_a_55    c18                            -1
    y_a_55    c77                             1
    y_a_56    c13                             1
    y_a_56    c17                            -1
    y_a_56    c78                             1
    y_a_57    c13                             1
    y_a_57    c19                            -1
    y_a_57    c79                             1
    y_a_58    c14                             1
    y_a_58    c16                            -1
    y_a_58    c80                             1
    y_a_59    c14                             1
    y_a_59    c18                            -1
    y_a_59    c81                             1
    y_a_60    c15                             1
    y_a_60    c16                            -1
    y_a_60    c82                             1
    y_a_61    c16                             1
    y_a_61    c18                            -1
    y_a_61    c83                             1
    y_a_62    c16                             1
    y_a_62    c19                            -1
    y_a_62    c84                             1
    y_a_63    c17                             1
    y_a_63    c19                            -1
    y_a_63    c85                             1
    y_a_71    c17                             1
    y_a_71    c21                            -1
    y_a_71    c93                             1
    y_a_64    c18                             1
    y_a_64    c19                            -1
    y_a_64    c86                             1
    y_a_72    c19                             1
    y_a_72    c21                            -1
    y_a_72    c94                             1
    y_a_73    c20                            -1
    y_a_73    c21                             1
    y_a_73    c95                             1
    x_a_0     obj1                            3
    x_a_0     c22                             4
    x_a_1     obj1                            1
    x_a_1     c23                            28
    x_a_2     obj1                            2
    x_a_2     c24                             9
    x_a_3     obj1                            2
    x_a_3     c25                            36
    x_a_4     obj1                            2
    x_a_4     c26                            35
    x_a_5     obj1                            2
    x_a_5     c27                            19
    x_a_6     obj1                            1
    x_a_6     c28                             9
    x_a_7     obj1                            3
    x_a_7     c29                            22
    x_a_8     obj1                            1
    x_a_8     c30                            24
    x_a_9     obj1                            1
    x_a_9     c31                            37
    x_a_10    obj1                            2
    x_a_10    c32                             2
    x_a_11    obj1                            1
    x_a_11    c33                            40
    x_a_12    obj1                            1
    x_a_12    c34                            29
    x_a_13    obj1                            1
    x_a_13    c35                            24
    x_a_14    obj1                            1
    x_a_14    c36                            39
    x_a_15    obj1                            1
    x_a_15    c37                            35
    x_a_16    obj1                            2
    x_a_16    c38                            26
    x_a_17    obj1                            3
    x_a_17    c39                            35
    x_a_18    obj1                            1
    x_a_18    c40                            20
    x_a_19    obj1                            3
    x_a_19    c41                            24
    x_a_20    obj1                            3
    x_a_20    c42                            39
    x_a_21    obj1                            1
    x_a_21    c43                            40
    x_a_22    obj1                            2
    x_a_22    c44                            15
    x_a_23    obj1                            1
    x_a_23    c45                            34
    x_a_24    obj1                            3
    x_a_24    c46                            29
    x_a_25    obj1                            3
    x_a_25    c47                            21
    x_a_26    obj1                            1
    x_a_26    c48                            16
    x_a_27    obj1                            2
    x_a_27    c49                            19
    x_a_28    obj1                            2
    x_a_28    c50                            33
    x_a_29    obj1                            1
    x_a_29    c51                             8
    x_a_30    obj1                            2
    x_a_30    c52                             3
    x_a_31    obj1                            2
    x_a_31    c53                             8
    x_a_32    obj1                            3
    x_a_32    c54                            16
    x_a_33    obj1                            1
    x_a_33    c55                            24
    x_a_34    obj1                            2
    x_a_34    c56                            37
    x_a_35    obj1                            2
    x_a_35    c57                            30
    x_a_36    obj1                            3
    x_a_36    c58                            42
    x_a_37    obj1                            3
    x_a_37    c59                            20
    x_a_38    obj1                            1
    x_a_38    c60                            37
    x_a_39    obj1                            2
    x_a_39    c61                            29
    x_a_40    obj1                            2
    x_a_40    c62                            33
    x_a_41    obj1                            2
    x_a_41    c63                             6
    x_a_42    obj1                            1
    x_a_42    c64                            35
    x_a_43    obj1                            2
    x_a_43    c65                             2
    x_a_44    obj1                            1
    x_a_44    c66                            26
    x_a_45    obj1                            1
    x_a_45    c67                             7
    x_a_46    obj1                            2
    x_a_46    c68                            10
    x_a_47    obj1                            1
    x_a_47    c69                             4
    x_a_48    obj1                            3
    x_a_48    c70                            35
    x_a_49    obj1                            3
    x_a_49    c71                            13
    x_a_50    obj1                            2
    x_a_50    c72                            27
    x_a_51    obj1                            1
    x_a_51    c73                            44
    x_a_52    obj1                            3
    x_a_52    c74                             4
    x_a_53    obj1                            1
    x_a_53    c75                            37
    x_a_54    obj1                            3
    x_a_54    c76                            15
    x_a_55    obj1                            1
    x_a_55    c77                            10
    x_a_56    obj1                            2
    x_a_56    c78                            34
    x_a_57    obj1                            3
    x_a_57    c79                             2
    x_a_58    obj1                            3
    x_a_58    c80                            37
    x_a_59    obj1                            3
    x_a_59    c81                             4
    x_a_60    obj1                            3
    x_a_60    c82                            49
    x_a_61    obj1                            2
    x_a_61    c83                            19
    x_a_62    obj1                            3
    x_a_62    c84                             7
    x_a_63    obj1                            3
    x_a_63    c85                            46
    x_a_64    obj1                            1
    x_a_64    c86                            45
    x_a_65    obj1                   1000000000
    x_a_65    c87                      50000000
    x_a_66    obj1                   1000000000
    x_a_66    c88                      50000000
    x_a_67    obj1                   1000000000
    x_a_67    c89                      50000000
    x_a_68    obj1                   1000000000
    x_a_68    c90                      50000000
    x_a_69    obj1                   1000000000
    x_a_69    c91                      50000000
    x_a_70    obj1                   1000000000
    x_a_70    c92                      50000000
    x_a_71    obj1                   1000000000
    x_a_71    c93                      50000000
    x_a_72    obj1                   1000000000
    x_a_72    c94                      50000000
    x_a_73    obj1                        10000
    x_a_73    c95                         10000
    MARK0001  'MARKER'                 'INTEND'
RHS
    rhs       c1                          293.4
    rhs       c22                             4
    rhs       c23                            28
    rhs       c24                             9
    rhs       c25                            36
    rhs       c26                            35
    rhs       c27                            19
    rhs       c28                             9
    rhs       c29                            22
    rhs       c30                            24
    rhs       c31                            37
    rhs       c32                             2
    rhs       c33                            40
    rhs       c34                            29
    rhs       c35                            24
    rhs       c36                            39
    rhs       c37                            35
    rhs       c38                            26
    rhs       c39                            35
    rhs       c40                            20
    rhs       c41                            24
    rhs       c42                            39
    rhs       c43                            40
    rhs       c44                            15
    rhs       c45                            34
    rhs       c46                            29
    rhs       c47                            21
    rhs       c48                            16
    rhs       c49                            19
    rhs       c50                            33
    rhs       c51                             8
    rhs       c52                             3
    rhs       c53                             8
    rhs       c54                            16
    rhs       c55                            24
    rhs       c56                            37
    rhs       c57                            30
    rhs       c58                            42
    rhs       c59                            20
    rhs       c60                            37
    rhs       c61                            29
    rhs       c62                            33
    rhs       c63                             6
    rhs       c64                            35
    rhs       c65                             2
    rhs       c66                            26
    rhs       c67                             7
    rhs       c68                            10
    rhs       c69                             4
    rhs       c70                            35
    rhs       c71                            13
    rhs       c72                            27
    rhs       c73                            44
    rhs       c74                             4
    rhs       c75                            37
    rhs       c76                            15
    rhs       c77                            10
    rhs       c78                            34
    rhs       c79                             2
    rhs       c80                            37
    rhs       c81                             4
    rhs       c82                            49
    rhs       c83                            19
    rhs       c84                             7
    rhs       c85                            46
    rhs       c86                            45
    rhs       c87                      50000000
    rhs       c88                      50000000
    rhs       c89                      50000000
    rhs       c90                      50000000
    rhs       c91                      50000000
    rhs       c92                      50000000
    rhs       c93                      50000000
    rhs       c94                      50000000
    rhs       c95                         10000
BOUNDS
 UP bnd       y_a_65                   50000000
 UP bnd       y_a_66                   50000000
 UP bnd       y_a_67                   50000000
 UP bnd       y_a_68                   50000000
 UP bnd       y_a_0                           4
 UP bnd       y_a_1                          28
 UP bnd       y_a_2                           9
 UP bnd       y_a_3                          36
 UP bnd       y_a_4                          35
 UP bnd       y_a_5                          19
 UP bnd       y_a_6                           9
 UP bnd       y_a_7                          22
 UP bnd       y_a_8                          24
 UP bnd       y_a_9                          37
 UP bnd       y_a_10                          2
 UP bnd       y_a_11                         40
 UP bnd       y_a_12                         29
 UP bnd       y_a_13                         24
 UP bnd       y_a_14                         39
 UP bnd       y_a_15                         35
 UP bnd       y_a_16                         26
 UP bnd       y_a_17                         35
 UP bnd       y_a_18                         20
 UP bnd       y_a_19                         24
 UP bnd       y_a_20                         39
 UP bnd       y_a_21                         40
 UP bnd       y_a_22                         15
 UP bnd       y_a_23                         34
 UP bnd       y_a_24                         29
 UP bnd       y_a_25                         21
 UP bnd       y_a_26                         16
 UP bnd       y_a_27                         19
 UP bnd       y_a_28                         33
 UP bnd       y_a_29                          8
 UP bnd       y_a_30                          3
 UP bnd       y_a_31                          8
 UP bnd       y_a_32                         16
 UP bnd       y_a_33                         24
 UP bnd       y_a_34                         37
 UP bnd       y_a_35                         30
 UP bnd       y_a_36                         42
 UP bnd       y_a_37                         20
 UP bnd       y_a_38                         37
 UP bnd       y_a_39                         29
 UP bnd       y_a_69                   50000000
 UP bnd       y_a_70                   50000000
 UP bnd       y_a_40                         33
 UP bnd       y_a_41                          6
 UP bnd       y_a_42                         35
 UP bnd       y_a_43                          2
 UP bnd       y_a_44                         26
 UP bnd       y_a_45                          7
 UP bnd       y_a_46                         10
 UP bnd       y_a_47                          4
 UP bnd       y_a_48                         35
 UP bnd       y_a_49                         13
 UP bnd       y_a_50                         27
 UP bnd       y_a_51                         44
 UP bnd       y_a_52                          4
 UP bnd       y_a_53                         37
 UP bnd       y_a_54                         15
 UP bnd       y_a_55                         10
 UP bnd       y_a_56                         34
 UP bnd       y_a_57                          2
 UP bnd       y_a_58                         37
 UP bnd       y_a_59                          4
 UP bnd       y_a_60                         49
 UP bnd       y_a_61                         19
 UP bnd       y_a_62                          7
 UP bnd       y_a_63                         46
 UP bnd       y_a_71                   50000000
 UP bnd       y_a_64                         45
 UP bnd       y_a_72                   50000000
 UP bnd       y_a_73                      10000
 BV bnd       x_a_0   
 BV bnd       x_a_1   
 BV bnd       x_a_2   
 BV bnd       x_a_3   
 BV bnd       x_a_4   
 BV bnd       x_a_5   
 BV bnd       x_a_6   
 BV bnd       x_a_7   
 BV bnd       x_a_8   
 BV bnd       x_a_9   
 BV bnd       x_a_10  
 BV bnd       x_a_11  
 BV bnd       x_a_12  
 BV bnd       x_a_13  
 BV bnd       x_a_14  
 BV bnd       x_a_15  
 BV bnd       x_a_16  
 BV bnd       x_a_17  
 BV bnd       x_a_18  
 BV bnd       x_a_19  
 BV bnd       x_a_20  
 BV bnd       x_a_21  
 BV bnd       x_a_22  
 BV bnd       x_a_23  
 BV bnd       x_a_24  
 BV bnd       x_a_25  
 BV bnd       x_a_26  
 BV bnd       x_a_27  
 BV bnd       x_a_28  
 BV bnd       x_a_29  
 BV bnd       x_a_30  
 BV bnd       x_a_31  
 BV bnd       x_a_32  
 BV bnd       x_a_33  
 BV bnd       x_a_34  
 BV bnd       x_a_35  
 BV bnd       x_a_36  
 BV bnd       x_a_37  
 BV bnd       x_a_38  
 BV bnd       x_a_39  
 BV bnd       x_a_40  
 BV bnd       x_a_41  
 BV bnd       x_a_42  
 BV bnd       x_a_43  
 BV bnd       x_a_44  
 BV bnd       x_a_45  
 BV bnd       x_a_46  
 BV bnd       x_a_47  
 BV bnd       x_a_48  
 BV bnd       x_a_49  
 BV bnd       x_a_50  
 BV bnd       x_a_51  
 BV bnd       x_a_52  
 BV bnd       x_a_53  
 BV bnd       x_a_54  
 BV bnd       x_a_55  
 BV bnd       x_a_56  
 BV bnd       x_a_57  
 BV bnd       x_a_58  
 BV bnd       x_a_59  
 BV bnd       x_a_60  
 BV bnd       x_a_61  
 BV bnd       x_a_62  
 BV bnd       x_a_63  
 BV bnd       x_a_64  
 BV bnd       x_a_65  
 BV bnd       x_a_66  
 BV bnd       x_a_67  
 BV bnd       x_a_68  
 BV bnd       x_a_69  
 BV bnd       x_a_70  
 BV bnd       x_a_71  
 BV bnd       x_a_72  
 BV bnd       x_a_73  
ENDATA
